outputs/case_126.model.txt
foreign_currency_non_investment_reserve_fully_invested_in_same_currency = True
capital_fund = 23500000000
foreign_investment_total = 7252000000
adjustment_plan_approved_by_board = False
approved_ratio_value = 3/10
investment_type_foreign_securities = True
foreign_currency_non_investment_reserve = 0
foreign_investment_gross = 7252000000
adjustment_completed_within_one_month = False
meets_fund_usage_ratio_requirements = True
non_investment_foreign_currency_reserve_40_percent = False
investment_type_foreign_insurance_related = False
adjustment_plan_violation_count = 0
investment_type_other_approved = False
investment_type_foreign_deposit = False
foreign_investment_compliance = True
approved_ratio = 3/10
foreign_investment_adjustment_plan_required = False
violate_article_146_1_2_3_5_or_146_5_3_4 = False
foreign_currency_investment_in_domestic_foreign_currency_securities = 0
violate_article_138_2_4_5_7_or_138_3_1_2_3 = False
violate_article_138_1_3_5_or_2 = False
foreign_investment_allowed_types = 1
violate_article_146_1_3_5_7_6_or_8 = False
violate_article_146_2_1_2_4 = False
violate_article_146_6_1_2_3 = False
violate_article_146_5_1_or_146_5_unauthorized_investment = False
violate_article_143_5_or_143_6_measures = False
violate_article_143 = False
foreign_investment_limit = 1
violate_article_146_3_3_loan_board_approval = False
violation_of_investment_regulations = False
violate_article_146_3_1_2_4 = False
violate_article_146_7_1_3_loan_or_transaction_limit = False
foreign_investment_exclusion_amount = 0
violate_article_146_3_3_loan_without_sufficient_collateral = False
violate_article_146_4_1_2_3 = False
foreign_investment_adjustment_plan_violation = False
violate_article_146_9_1_2_3 = False
penalty = False
foreign_investment_adjustment_plan_completed = False